** FEM2D 示例：悬臂梁 CST3 (5x2)
** 左端固支，右端中点加竖向力 P=-1000
*MATERIAL, E=2.1e11, NU=0.3, RHO=7800, MU=1e-3, T=0.01
*NODE
1, 0.0000, 0.0000
2, 2.0000, 0.0000
3, 4.0000, 0.0000
4, 6.0000, 0.0000
5, 8.0000, 0.0000
6, 10.0000, 0.0000
7, 0.0000, 0.5000
8, 2.0000, 0.5000
9, 4.0000, 0.5000
10, 6.0000, 0.5000
11, 8.0000, 0.5000
12, 10.0000, 0.5000
13, 0.0000, 1.0000
14, 2.0000, 1.0000
15, 4.0000, 1.0000
16, 6.0000, 1.0000
17, 8.0000, 1.0000
18, 10.0000, 1.0000
*ELEMENT, TYPE=CST3
1, 1,2,8
2, 1,8,7
3, 2,3,9
4, 2,9,8
5, 3,4,10
6, 3,10,9
7, 4,5,11
8, 4,11,10
9, 5,6,12
10, 5,12,11
11, 7,8,14
12, 7,14,13
13, 8,9,15
14, 8,15,14
15, 9,10,16
16, 9,16,15
17, 10,11,17
18, 10,17,16
19, 11,12,18
20, 11,18,17
*BOUNDARY
1, 1, 0.0
1, 2, 0.0
7, 1, 0.0
7, 2, 0.0
13, 1, 0.0
13, 2, 0.0
*CLOAD
12, 2, -1000.0