** Lid-driven cavity Q4 8x8. Lid (y=1) u=1; others u=v=0. Pressure reference at (0,0).
*NODE
1,0.000000,0.000000
2,0.125000,0.000000
3,0.250000,0.000000
4,0.375000,0.000000
5,0.500000,0.000000
6,0.625000,0.000000
7,0.750000,0.000000
8,0.875000,0.000000
9,1.000000,0.000000
10,0.000000,0.125000
11,0.125000,0.125000
12,0.250000,0.125000
13,0.375000,0.125000
14,0.500000,0.125000
15,0.625000,0.125000
16,0.750000,0.125000
17,0.875000,0.125000
18,1.000000,0.125000
19,0.000000,0.250000
20,0.125000,0.250000
21,0.250000,0.250000
22,0.375000,0.250000
23,0.500000,0.250000
24,0.625000,0.250000
25,0.750000,0.250000
26,0.875000,0.250000
27,1.000000,0.250000
28,0.000000,0.375000
29,0.125000,0.375000
30,0.250000,0.375000
31,0.375000,0.375000
32,0.500000,0.375000
33,0.625000,0.375000
34,0.750000,0.375000
35,0.875000,0.375000
36,1.000000,0.375000
37,0.000000,0.500000
38,0.125000,0.500000
39,0.250000,0.500000
40,0.375000,0.500000
41,0.500000,0.500000
42,0.625000,0.500000
43,0.750000,0.500000
44,0.875000,0.500000
45,1.000000,0.500000
46,0.000000,0.625000
47,0.125000,0.625000
48,0.250000,0.625000
49,0.375000,0.625000
50,0.500000,0.625000
51,0.625000,0.625000
52,0.750000,0.625000
53,0.875000,0.625000
54,1.000000,0.625000
55,0.000000,0.750000
56,0.125000,0.750000
57,0.250000,0.750000
58,0.375000,0.750000
59,0.500000,0.750000
60,0.625000,0.750000
61,0.750000,0.750000
62,0.875000,0.750000
63,1.000000,0.750000
64,0.000000,0.875000
65,0.125000,0.875000
66,0.250000,0.875000
67,0.375000,0.875000
68,0.500000,0.875000
69,0.625000,0.875000
70,0.750000,0.875000
71,0.875000,0.875000
72,1.000000,0.875000
73,0.000000,1.000000
74,0.125000,1.000000
75,0.250000,1.000000
76,0.375000,1.000000
77,0.500000,1.000000
78,0.625000,1.000000
79,0.750000,1.000000
80,0.875000,1.000000
81,1.000000,1.000000
*ELEMENT, TYPE=Q4
1,1,2,11,10
2,2,3,12,11
3,3,4,13,12
4,4,5,14,13
5,5,6,15,14
6,6,7,16,15
7,7,8,17,16
8,8,9,18,17
9,10,11,20,19
10,11,12,21,20
11,12,13,22,21
12,13,14,23,22
13,14,15,24,23
14,15,16,25,24
15,16,17,26,25
16,17,18,27,26
17,19,20,29,28
18,20,21,30,29
19,21,22,31,30
20,22,23,32,31
21,23,24,33,32
22,24,25,34,33
23,25,26,35,34
24,26,27,36,35
25,28,29,38,37
26,29,30,39,38
27,30,31,40,39
28,31,32,41,40
29,32,33,42,41
30,33,34,43,42
31,34,35,44,43
32,35,36,45,44
33,37,38,47,46
34,38,39,48,47
35,39,40,49,48
36,40,41,50,49
37,41,42,51,50
38,42,43,52,51
39,43,44,53,52
40,44,45,54,53
41,46,47,56,55
42,47,48,57,56
43,48,49,58,57
44,49,50,59,58
45,50,51,60,59
46,51,52,61,60
47,52,53,62,61
48,53,54,63,62
49,55,56,65,64
50,56,57,66,65
51,57,58,67,66
52,58,59,68,67
53,59,60,69,68
54,60,61,70,69
55,61,62,71,70
56,62,63,72,71
57,64,65,74,73
58,65,66,75,74
59,66,67,76,75
60,67,68,77,76
61,68,69,78,77
62,69,70,79,78
63,70,71,80,79
64,71,72,81,80
*BOUNDARY
1,1,2,0.0
73,2,0.0
73,1,1,1.0
2,1,2,0.0
74,2,0.0
74,1,1,1.0
3,1,2,0.0
75,2,0.0
75,1,1,1.0
4,1,2,0.0
76,2,0.0
76,1,1,1.0
5,1,2,0.0
77,2,0.0
77,1,1,1.0
6,1,2,0.0
78,2,0.0
78,1,1,1.0
7,1,2,0.0
79,2,0.0
79,1,1,1.0
8,1,2,0.0
80,2,0.0
80,1,1,1.0
9,1,2,0.0
81,2,0.0
81,1,1,1.0
1,1,2,0.0
9,1,2,0.0
10,1,2,0.0
18,1,2,0.0
19,1,2,0.0
27,1,2,0.0
28,1,2,0.0
36,1,2,0.0
37,1,2,0.0
45,1,2,0.0
46,1,2,0.0
54,1,2,0.0
55,1,2,0.0
63,1,2,0.0
64,1,2,0.0
72,1,2,0.0
73,1,2,0.0
81,1,2,0.0
*MATERIAL
E,1e9,0.3,1.0,0.01,1.0