** 悬臂梁算例 (CST3)
** 几何: L=10, H=2, 10x2 矩形网格（CST 三角单元自动细分后为 40 个三角单元）
** 材料: E=210GPa, nu=0.3, 左端固支, 右端集中力
*NODE
1, 0.0, 0.0
2, 1.0, 0.0
3, 2.0, 0.0
4, 3.0, 0.0
5, 4.0, 0.0
6, 5.0, 0.0
7, 6.0, 0.0
8, 7.0, 0.0
9, 8.0, 0.0
10, 9.0, 0.0
11, 10.0, 0.0
12, 0.0, 1.0
13, 1.0, 1.0
14, 2.0, 1.0
15, 3.0, 1.0
16, 4.0, 1.0
17, 5.0, 1.0
18, 6.0, 1.0
19, 7.0, 1.0
20, 8.0, 1.0
21, 9.0, 1.0
22, 10.0, 1.0
*ELEMENT, TYPE=CPS3
1, 1, 2, 13
2, 1, 13, 12
3, 2, 3, 14
4, 2, 14, 13
5, 3, 4, 15
6, 3, 15, 14
7, 4, 5, 16
8, 4, 16, 15
9, 5, 6, 17
10, 5, 17, 16
11, 6, 7, 18
12, 6, 18, 17
13, 7, 8, 19
14, 7, 19, 18
15, 8, 9, 20
16, 8, 20, 19
17, 9, 10, 21
18, 9, 21, 20
19, 10, 11, 22
20, 10, 22, 21
*BOUNDARY
1, 1, 0.0
1, 2, 0.0
12, 1, 0.0
12, 2, 0.0
*CLOAD
11, 2, -5000.0
22, 2, -5000.0
