** 顶盖驱动方腔 (Q4) 10x10
*NODE
1, 0.000000, 0.000000
2, 0.100000, 0.000000
3, 0.200000, 0.000000
4, 0.300000, 0.000000
5, 0.400000, 0.000000
6, 0.500000, 0.000000
7, 0.600000, 0.000000
8, 0.700000, 0.000000
9, 0.800000, 0.000000
10, 0.900000, 0.000000
11, 1.000000, 0.000000
12, 0.000000, 0.100000
13, 0.100000, 0.100000
14, 0.200000, 0.100000
15, 0.300000, 0.100000
16, 0.400000, 0.100000
17, 0.500000, 0.100000
18, 0.600000, 0.100000
19, 0.700000, 0.100000
20, 0.800000, 0.100000
21, 0.900000, 0.100000
22, 1.000000, 0.100000
23, 0.000000, 0.200000
24, 0.100000, 0.200000
25, 0.200000, 0.200000
26, 0.300000, 0.200000
27, 0.400000, 0.200000
28, 0.500000, 0.200000
29, 0.600000, 0.200000
30, 0.700000, 0.200000
31, 0.800000, 0.200000
32, 0.900000, 0.200000
33, 1.000000, 0.200000
34, 0.000000, 0.300000
35, 0.100000, 0.300000
36, 0.200000, 0.300000
37, 0.300000, 0.300000
38, 0.400000, 0.300000
39, 0.500000, 0.300000
40, 0.600000, 0.300000
41, 0.700000, 0.300000
42, 0.800000, 0.300000
43, 0.900000, 0.300000
44, 1.000000, 0.300000
45, 0.000000, 0.400000
46, 0.100000, 0.400000
47, 0.200000, 0.400000
48, 0.300000, 0.400000
49, 0.400000, 0.400000
50, 0.500000, 0.400000
51, 0.600000, 0.400000
52, 0.700000, 0.400000
53, 0.800000, 0.400000
54, 0.900000, 0.400000
55, 1.000000, 0.400000
56, 0.000000, 0.500000
57, 0.100000, 0.500000
58, 0.200000, 0.500000
59, 0.300000, 0.500000
60, 0.400000, 0.500000
61, 0.500000, 0.500000
62, 0.600000, 0.500000
63, 0.700000, 0.500000
64, 0.800000, 0.500000
65, 0.900000, 0.500000
66, 1.000000, 0.500000
67, 0.000000, 0.600000
68, 0.100000, 0.600000
69, 0.200000, 0.600000
70, 0.300000, 0.600000
71, 0.400000, 0.600000
72, 0.500000, 0.600000
73, 0.600000, 0.600000
74, 0.700000, 0.600000
75, 0.800000, 0.600000
76, 0.900000, 0.600000
77, 1.000000, 0.600000
78, 0.000000, 0.700000
79, 0.100000, 0.700000
80, 0.200000, 0.700000
81, 0.300000, 0.700000
82, 0.400000, 0.700000
83, 0.500000, 0.700000
84, 0.600000, 0.700000
85, 0.700000, 0.700000
86, 0.800000, 0.700000
87, 0.900000, 0.700000
88, 1.000000, 0.700000
89, 0.000000, 0.800000
90, 0.100000, 0.800000
91, 0.200000, 0.800000
92, 0.300000, 0.800000
93, 0.400000, 0.800000
94, 0.500000, 0.800000
95, 0.600000, 0.800000
96, 0.700000, 0.800000
97, 0.800000, 0.800000
98, 0.900000, 0.800000
99, 1.000000, 0.800000
100, 0.000000, 0.900000
101, 0.100000, 0.900000
102, 0.200000, 0.900000
103, 0.300000, 0.900000
104, 0.400000, 0.900000
105, 0.500000, 0.900000
106, 0.600000, 0.900000
107, 0.700000, 0.900000
108, 0.800000, 0.900000
109, 0.900000, 0.900000
110, 1.000000, 0.900000
111, 0.000000, 1.000000
112, 0.100000, 1.000000
113, 0.200000, 1.000000
114, 0.300000, 1.000000
115, 0.400000, 1.000000
116, 0.500000, 1.000000
117, 0.600000, 1.000000
118, 0.700000, 1.000000
119, 0.800000, 1.000000
120, 0.900000, 1.000000
121, 1.000000, 1.000000
*ELEMENT, TYPE=CPS4
1, 1, 2, 13, 12
2, 2, 3, 14, 13
3, 3, 4, 15, 14
4, 4, 5, 16, 15
5, 5, 6, 17, 16
6, 6, 7, 18, 17
7, 7, 8, 19, 18
8, 8, 9, 20, 19
9, 9, 10, 21, 20
10, 10, 11, 22, 21
11, 12, 13, 24, 23
12, 13, 14, 25, 24
13, 14, 15, 26, 25
14, 15, 16, 27, 26
15, 16, 17, 28, 27
16, 17, 18, 29, 28
17, 18, 19, 30, 29
18, 19, 20, 31, 30
19, 20, 21, 32, 31
20, 21, 22, 33, 32
21, 23, 24, 35, 34
22, 24, 25, 36, 35
23, 25, 26, 37, 36
24, 26, 27, 38, 37
25, 27, 28, 39, 38
26, 28, 29, 40, 39
27, 29, 30, 41, 40
28, 30, 31, 42, 41
29, 31, 32, 43, 42
30, 32, 33, 44, 43
31, 34, 35, 46, 45
32, 35, 36, 47, 46
33, 36, 37, 48, 47
34, 37, 38, 49, 48
35, 38, 39, 50, 49
36, 39, 40, 51, 50
37, 40, 41, 52, 51
38, 41, 42, 53, 52
39, 42, 43, 54, 53
40, 43, 44, 55, 54
41, 45, 46, 57, 56
42, 46, 47, 58, 57
43, 47, 48, 59, 58
44, 48, 49, 60, 59
45, 49, 50, 61, 60
46, 50, 51, 62, 61
47, 51, 52, 63, 62
48, 52, 53, 64, 63
49, 53, 54, 65, 64
50, 54, 55, 66, 65
51, 56, 57, 68, 67
52, 57, 58, 69, 68
53, 58, 59, 70, 69
54, 59, 60, 71, 70
55, 60, 61, 72, 71
56, 61, 62, 73, 72
57, 62, 63, 74, 73
58, 63, 64, 75, 74
59, 64, 65, 76, 75
60, 65, 66, 77, 76
61, 67, 68, 79, 78
62, 68, 69, 80, 79
63, 69, 70, 81, 80
64, 70, 71, 82, 81
65, 71, 72, 83, 82
66, 72, 73, 84, 83
67, 73, 74, 85, 84
68, 74, 75, 86, 85
69, 75, 76, 87, 86
70, 76, 77, 88, 87
71, 78, 79, 90, 89
72, 79, 80, 91, 90
73, 80, 81, 92, 91
74, 81, 82, 93, 92
75, 82, 83, 94, 93
76, 83, 84, 95, 94
77, 84, 85, 96, 95
78, 85, 86, 97, 96
79, 86, 87, 98, 97
80, 87, 88, 99, 98
81, 89, 90, 101, 100
82, 90, 91, 102, 101
83, 91, 92, 103, 102
84, 92, 93, 104, 103
85, 93, 94, 105, 104
86, 94, 95, 106, 105
87, 95, 96, 107, 106
88, 96, 97, 108, 107
89, 97, 98, 109, 108
90, 98, 99, 110, 109
91, 100, 101, 112, 111
92, 101, 102, 113, 112
93, 102, 103, 114, 113
94, 103, 104, 115, 114
95, 104, 105, 116, 115
96, 105, 106, 117, 116
97, 106, 107, 118, 117
98, 107, 108, 119, 118
99, 108, 109, 120, 119
100, 109, 110, 121, 120
*BOUNDARY
1, 1, 0.0
1, 2, 0.0
111, 1, 1.0
111, 2, 0.0
2, 1, 0.0
2, 2, 0.0
112, 1, 1.0
112, 2, 0.0
3, 1, 0.0
3, 2, 0.0
113, 1, 1.0
113, 2, 0.0
4, 1, 0.0
4, 2, 0.0
114, 1, 1.0
114, 2, 0.0
5, 1, 0.0
5, 2, 0.0
115, 1, 1.0
115, 2, 0.0
6, 1, 0.0
6, 2, 0.0
116, 1, 1.0
116, 2, 0.0
7, 1, 0.0
7, 2, 0.0
117, 1, 1.0
117, 2, 0.0
8, 1, 0.0
8, 2, 0.0
118, 1, 1.0
118, 2, 0.0
9, 1, 0.0
9, 2, 0.0
119, 1, 1.0
119, 2, 0.0
10, 1, 0.0
10, 2, 0.0
120, 1, 1.0
120, 2, 0.0
11, 1, 0.0
11, 2, 0.0
121, 1, 1.0
121, 2, 0.0
12, 1, 0.0
12, 2, 0.0
22, 1, 0.0
22, 2, 0.0
23, 1, 0.0
23, 2, 0.0
33, 1, 0.0
33, 2, 0.0
34, 1, 0.0
34, 2, 0.0
44, 1, 0.0
44, 2, 0.0
45, 1, 0.0
45, 2, 0.0
55, 1, 0.0
55, 2, 0.0
56, 1, 0.0
56, 2, 0.0
66, 1, 0.0
66, 2, 0.0
67, 1, 0.0
67, 2, 0.0
77, 1, 0.0
77, 2, 0.0
78, 1, 0.0
78, 2, 0.0
88, 1, 0.0
88, 2, 0.0
89, 1, 0.0
89, 2, 0.0
99, 1, 0.0
99, 2, 0.0
100, 1, 0.0
100, 2, 0.0
110, 1, 0.0
110, 2, 0.0
1, 3, 0.0