** 悬臂梁 CST3 示例 (L=2, H=0.5, Nx=4, Ny=2)
** 单位: m, Pa, N
*NODE
1, 0.0, 0.0
2, 0.5, 0.0
3, 1.0, 0.0
4, 1.5, 0.0
5, 2.0, 0.0
6, 0.0, 0.25
7, 0.5, 0.25
8, 1.0, 0.25
9, 1.5, 0.25
10, 2.0, 0.25
11, 0.0, 0.5
12, 0.5, 0.5
13, 1.0, 0.5
14, 1.5, 0.5
15, 2.0, 0.5
*ELEMENT, TYPE=CPS3
1, 1, 2, 7
2, 1, 7, 6
3, 2, 3, 8
4, 2, 8, 7
5, 3, 4, 9
6, 3, 9, 8
7, 4, 5, 10
8, 4, 10, 9
9, 6, 7, 12
10, 6, 12, 11
11, 7, 8, 13
12, 7, 13, 12
13, 8, 9, 14
14, 8, 14, 13
15, 9, 10, 15
16, 9, 15, 14
*BOUNDARY
1, FixBoth, 0.0
6, FixBoth, 0.0
11, FixBoth, 0.0
15, ForceY, -1000.0
