** 顶盖驱动方腔 Q4 (1x1, 4x4, Re=100)
*NODE
1, 0.0, 0.0
2, 0.25, 0.0
3, 0.5, 0.0
4, 0.75, 0.0
5, 1.0, 0.0
6, 0.0, 0.25
7, 0.25, 0.25
8, 0.5, 0.25
9, 0.75, 0.25
10, 1.0, 0.25
11, 0.0, 0.5
12, 0.25, 0.5
13, 0.5, 0.5
14, 0.75, 0.5
15, 1.0, 0.5
16, 0.0, 0.75
17, 0.25, 0.75
18, 0.5, 0.75
19, 0.75, 0.75
20, 1.0, 0.75
21, 0.0, 1.0
22, 0.25, 1.0
23, 0.5, 1.0
24, 0.75, 1.0
25, 1.0, 1.0
*ELEMENT, TYPE=CPS4
1, 1, 2, 7, 6
2, 2, 3, 8, 7
3, 3, 4, 9, 8
4, 4, 5, 10, 9
5, 6, 7, 12, 11
6, 7, 8, 13, 12
7, 8, 9, 14, 13
8, 9, 10, 15, 14
9, 11, 12, 17, 16
10, 12, 13, 18, 17
11, 13, 14, 19, 18
12, 14, 15, 20, 19
13, 16, 17, 22, 21
14, 17, 18, 23, 22
15, 18, 19, 24, 23
16, 19, 20, 25, 24
*BOUNDARY
1, Vx, 0.0
1, Vy, 0.0
2, Vx, 0.0
2, Vy, 0.0
3, Vx, 0.0
3, Vy, 0.0
4, Vx, 0.0
4, Vy, 0.0
5, Vx, 0.0
5, Vy, 0.0
6, Vx, 0.0
6, Vy, 0.0
10, Vx, 0.0
10, Vy, 0.0
11, Vx, 0.0
11, Vy, 0.0
15, Vx, 0.0
15, Vy, 0.0
16, Vx, 0.0
16, Vy, 0.0
20, Vx, 0.0
20, Vy, 0.0
21, Vy, 0.0
21, Vx, 1.0
22, Vy, 0.0
22, Vx, 1.0
23, Vy, 0.0
23, Vx, 1.0
24, Vy, 0.0
24, Vx, 1.0
25, Vy, 0.0
25, Vx, 1.0
1, P, 0.0
